N = 5;
Capacity = 10;
ItemsPerCustomer = [3, 7, 6, 6, 5];
maxItemsPerCustomer = 7;
binCapacity = 50;
SizesOfItems = [|
  33, 31, 13, 0, 0, 0, 0
| 38, 33, 28, 27, 23, 12, 11
| 29, 26, 17, 16, 12, 10, 0
| 32, 32, 30, 27, 16, 10, 0
| 28, 27, 24, 23, 17, 0, 0
|];
Distance = [|
  0, 52, 45, 49, 48, 33
| 52, 0, 7, 13, 100, 72
| 45, 7, 0, 13, 93, 66
| 49, 13, 13, 0, 97, 63
| 48, 100, 93, 97, 0, 49
| 33, 72, 66, 63, 49, 0
|];
